17	4
19	17	20	19	
0	0	0	0	0	3	2	3	4	
7	3	8	4	4	3	5	9	15	
10	9	9	9	8	2	8	10	
7	9	4	4	2	3	6	7	17	
9	3	1	8	1	3	16	17	17	
50	4	9	9	6	1	17	
75	7	4	9	6	3	13	14	17	
200	7	1	5	9	2	11	17	
50	2	6	2	5	1	12	
75	7	10	8	7	1	17	
150	3	9	7	1	1	17	
200	10	6	9	10	2	17	17	
9	2	10	9	8	1	17	
2	7	5	5	4	2	15	17	
3	4	8	6	2	2	17	17	
8	1	6	2	8	1	17	
0	0	0	0	0	0	
